multiobj/instances/uniform/Ter.6.3.0.80.2.in
6 3
0 555 650 868 523 851 
555 0 135 334 321 333 
650 135 0 169 904 551 
868 334 169 0 490 933 
523 321 904 490 0 256 
851 333 551 933 256 0 
0 445 853 769 650 258 
445 0 801 420 853 811 
853 801 0 254 281 427 
769 420 254 0 302 478 
650 853 281 302 0 203 
258 811 427 478 203 0 
0 559 815 575 483 149 
559 0 761 357 858 879 
815 761 0 378 345 589 
575 357 378 0 327 473 
483 858 345 327 0 336 
149 879 589 473 336 0 
0 589 946 846 694 175 
589 0 885 279 868 806 
946 885 0 326 353 278 
846 279 326 0 384 533 
694 868 353 384 0 425 
175 806 278 533 425 0 
