multiobj/solutions/Ter.6.3.0.80.2.out
3 3
4 1 5 3 0 2 
6974752 7155242 7605532 
4 1 3 0 5 2 
6982330 7029878 7691856 
4 1 5 0 3 2 
7060198 7066254 7463550 
